NAME : amz0773.155943_107943.tour
COMMENT : Cost = 155943_107943
COMMENT : Found by LKH-AMZ [Keld Helsgaun] Sun May 11 14:39:07 2025
COMMENT : TW viol.: 0 #: 0
TYPE : TOUR
DIMENSION : 159
TOUR_SECTION
103
93
27
75
13
66
8
31
73
18
117
139
71
36
16
129
22
128
150
88
65
126
56
134
64
107
48
92
2
51
148
26
17
69
105
21
1
127
145
94
45
119
84
98
6
125
11
52
152
120
35
32
99
121
72
83
159
49
116
42
15
144
24
25
7
111
77
43
41
10
106
39
59
141
97
110
115
100
79
12
67
40
140
95
109
76
63
80
5
61
82
58
23
60
157
123
130
114
135
156
37
85
91
154
29
54
68
34
155
44
153
142
74
132
70
137
96
113
136
4
138
89
81
19
33
124
57
149
38
47
122
14
112
55
104
53
143
118
3
9
87
46
133
147
20
102
86
90
62
78
151
101
158
108
131
28
50
146
30
-1
EOF
